NAME : A-n32-k5
COMMENT : (Eilon et al, Min no of trucks: 4, Best value: 290)
TYPE : CVRP
DIMENSION : 13
EDGE_WEIGHT_TYPE : EUC_2D 
CAPACITY : 6000
NODE_COORD_SECTION 

     9    14    21    23    22    25    32    36    38    42


    50    52     5    12    22    21    24    31    35    37


    41    49    51     7    17    16    23    26    30    36


    36    44    46    10    21    30    27    37    43    31


    37    39    19    28    25    35    41    29    31    29


     9    10    16    22    20    28    30     7    11    13


    17    25    27    10    16    10    18    20     6     6


    14    16    12    12    20     8    10    10
DEMAND_SECTION 
1 0 
2 19 
3 21 
4 6 
5 19 
6 7 
7 12 
8 16 
9 6 
10 16 
11 8 
12 14 
13 21 
14 16 
15 3 
16 22 
17 18 
18 19 
19 1 
20 24 
21 8 
22 12 
23 4 
24 8 
25 24 
26 24 
27 2 
28 20 
29 15 
30 2 
31 14 
32 9 
DEPOT_SECTION 
 1  
 -1  
EOF 
